unsat
(define-fun f ((x (_ BitVec 64))) (_ BitVec 64) (let ((_let_1 (bvsub x (bvnot x)))) (let ((_let_2 (bvadd x x))) (let ((_let_3 (ite (= x (bvor x (bvudiv x x))) (bvneg _let_2) _let_1))) (let ((_let_4 (bvmul x x))) (ite (bvult x (bvnot _let_2)) (ite (bvult x (bvxor x _let_4)) (ite (= x (bvsrem x _let_2)) (ite (bvult x (bvsdiv x _let_4)) _let_3 _let_3) _let_1) _let_1) _let_1))))))
0.60user 0.01system 0:00.63elapsed 99%CPU (0avgtext+0avgdata 35176maxresident)k
8inputs+8outputs (0major+3593minor)pagefaults 0swaps
